00010000010000100000010000000001000000100000000000,00000000000000000000000000000000000000000000000000,00001000001000000000000101100010000100000001010100,11000100000010000000001000011000100001010100001001,00000000000000000000000000000000000000000000000000,00000000000000000000000000000000000000000000000000,00000000000000000000000000000000000000000000000000,00000011000001010100000000000100001010000010000000,00100000100100001011100010000000010000001000100010,00000000000000000000000000000000000000000000000000,[0, 0, 0, 7, 0, 0, 0, 0, 0, 7, 0, 0, 0, 0, 7, 0, 0, 0, 0, 0, 0, 8, 0, 0, 0, 0, 0, 0, 0, 0, 0, 7, 0, 0, 0, 0, 0, 0, 8, 0, 0, 0, 0, 0, 0, 0, 0, 0, 0, 0],[],[0, 0, 0, 0, 1, 0, 0, 0, 0, 0, 1, 0, 0, 0, 0, 0, 0, 0, 0, 0, 0, 0, 0, 1, 0, 3, 3, 0, 0, 0, 3, 0, 0, 0, 0, 3, 0, 0, 0, 0, 0, 0, 0, 1, 0, 1, 0, 3, 0, 0],[9, 5, 0, 0, 0, 5, 0, 0, 0, 0, 0, 0, 9, 0, 0, 0, 0, 0, 0, 0, 0, 0, 9, 0, 0, 0, 0, 9, 9, 0, 0, 0, 9, 0, 0, 0, 0, 5, 0, 5, 0, 5, 0, 0, 0, 0, 9, 0, 0, 5],[],[],[],[0, 0, 0, 0, 0, 0, 6, 6, 0, 0, 0, 0, 0, 6, 0, 6, 0, 6, 0, 0, 0, 0, 0, 0, 0, 0, 0, 0, 0, 2, 0, 0, 0, 0, 2, 0, 2, 0, 0, 0, 0, 0, 2, 0, 0, 0, 0, 0, 0, 0],[0, 0, 4, 0, 0, 0, 0, 0, 10, 0, 0, 4, 0, 0, 0, 0, 10, 0, 4, 4, 10, 0, 0, 0, 10, 0, 0, 0, 0, 0, 0, 0, 0, 10, 0, 0, 0, 0, 0, 0, 10, 0, 0, 0, 4, 0, 0, 0, 10, 0],[][4, 10, 43, 45, 23],[29, 34, 36, 42],[30, 25, 47, 35, 26],[44, 18, 19, 11, 2],[49, 37, 1, 5, 39, 41],[13, 7, 15, 17, 6],[31, 3, 9, 14],[38, 21],[46, 32, 28, 27, 22, 0, 12],[33, 16, 8, 24, 20, 40, 48]
00000000000000000000000000000000000000000000000000,00000000000000000000000000000000000000000000000000,00000000000000000000000000000000000000000000000000,11000100000010001010001000011000110001010100001001,00100000000100000000000101100010000100000000110110,00000000000000000000000000000000000000000000000000,00000000000000000000000000000000000000000000000000,00001011001001010100000010000100001010000011000000,00000000000000000000000000000000000000000000000000,00010000110000100001110000000001000000101000000000,[],[],[],[5, 7, 0, 0, 0, 5, 0, 0, 0, 0, 0, 0, 10, 0, 0, 0, 7, 0, 5, 0, 0, 0, 5, 0, 0, 0, 0, 10, 7, 0, 0, 0, 10, 5, 0, 0, 0, 5, 0, 10, 0, 7, 0, 0, 0, 0, 10, 0, 0, 7],[0, 0, 3, 0, 0, 0, 0, 0, 0, 0, 0, 8, 0, 0, 0, 0, 0, 0, 0, 0, 0, 0, 0, 3, 0, 3, 8, 0, 0, 0, 8, 0, 0, 0, 0, 8, 0, 0, 0, 0, 0, 0, 0, 0, 3, 3, 0, 3, 3, 0],[],[],[0, 0, 0, 0, 6, 0, 1, 1, 0, 0, 4, 0, 0, 4, 0, 4, 0, 6, 0, 0, 0, 0, 0, 0, 6, 0, 0, 0, 0, 4, 0, 0, 0, 0, 6, 0, 1, 0, 0, 0, 0, 0, 1, 6, 0, 0, 0, 0, 0, 0],[],[0, 0, 0, 2, 0, 0, 0, 0, 2, 9, 0, 0, 0, 0, 9, 0, 0, 0, 0, 2, 9, 2, 0, 0, 0, 0, 0, 0, 0, 0, 0, 2, 0, 0, 0, 0, 0, 0, 9, 0, 9, 0, 0, 0, 0, 0, 0, 0, 0, 0][36, 6, 42, 7],[21, 3, 31, 8, 19],[47, 48, 2, 44, 23, 45, 25],[13, 15, 10, 29],[0, 33, 18, 5, 37, 22],[17, 24, 4, 34, 43],[49, 28, 16, 41, 1],[11, 26, 35, 30],[40, 38, 9, 14, 20],[32, 39, 27, 46, 12]
00010000110000101010110000000001010000100000000000,00000000000000000000000000000000000000000000000000,00000000000000000000000000000000000000000000000000,01000100000010000000001000011000100001000100001001,00100000000100000000000101100000000100000000000100,00000000000000000000000000000000000000000000000000,10001000000001010001000010000010000000011001110010,00000011001000000100000000000100001010000010000000,00000000000000000000000000000000000000000000000000,00000000000000000000000000000000000000000000000000,[0, 0, 0, 4, 0, 0, 0, 0, 5, 5, 0, 0, 0, 0, 5, 0, 4, 0, 5, 0, 5, 4, 0, 0, 0, 0, 0, 0, 0, 0, 0, 4, 0, 5, 0, 0, 0, 0, 5, 0, 0, 0, 0, 0, 0, 0, 0, 0, 0, 0],[],[],[0, 2, 0, 0, 0, 9, 0, 0, 0, 0, 0, 0, 2, 0, 0, 0, 0, 0, 0, 0, 0, 0, 2, 0, 0, 0, 0, 2, 2, 0, 0, 0, 2, 0, 0, 0, 0, 9, 0, 0, 0, 9, 0, 0, 0, 0, 9, 0, 0, 9],[0, 0, 1, 0, 0, 0, 0, 0, 0, 0, 0, 1, 0, 0, 0, 0, 0, 0, 0, 0, 0, 0, 0, 8, 0, 8, 1, 0, 0, 0, 0, 0, 0, 0, 0, 1, 0, 0, 0, 0, 0, 0, 0, 0, 0, 0, 0, 8, 0, 0],[],[10, 0, 0, 0, 10, 0, 0, 0, 0, 0, 0, 0, 0, 10, 0, 3, 0, 0, 0, 10, 0, 0, 0, 0, 10, 0, 0, 0, 0, 0, 3, 0, 0, 0, 0, 0, 0, 0, 0, 3, 10, 0, 0, 3, 3, 10, 0, 0, 3, 0],[0, 0, 0, 0, 0, 0, 7, 6, 0, 0, 7, 0, 0, 0, 0, 0, 0, 6, 0, 0, 0, 0, 0, 0, 0, 0, 0, 0, 0, 6, 0, 0, 0, 0, 6, 0, 6, 0, 0, 0, 0, 0, 7, 0, 0, 0, 0, 0, 0, 0],[],[][35, 26, 11, 2],[22, 32, 1, 27, 28, 12],[30, 48, 43, 15, 44, 39],[21, 16, 31, 3],[38, 8, 18, 33, 20, 14, 9],[36, 7, 29, 17, 34],[10, 6, 42],[47, 23, 25],[46, 49, 41, 5, 37],[40, 0, 13, 24, 45, 19, 4]
00000000000000000000000000000000000000000000000000,00110000010100100001110000000000000000000000100000,00001000001000000000000101100010000100000001010100,11000100000010000000001000011000100001010100001001,00000000000000000000000000000000000000000000000000,00000000000000000000000000000000000000000000000000,00000000000000000000000000000000000000000000000000,00000011000001010100000000000100001010000010000000,00000000100000001010000010000001010000101000000010,00000000000000000000000000000000000000000000000000,[],[0, 0, 2, 8, 0, 0, 0, 0, 0, 8, 0, 8, 0, 0, 8, 0, 0, 0, 0, 8, 2, 2, 0, 0, 0, 0, 0, 0, 0, 0, 0, 0, 0, 0, 0, 0, 0, 0, 0, 0, 0, 0, 0, 0, 2, 0, 0, 0, 0, 0],[0, 0, 0, 0, 3, 0, 0, 0, 0, 0, 3, 0, 0, 0, 0, 0, 0, 0, 0, 0, 0, 0, 0, 3, 0, 4, 4, 0, 0, 0, 3, 0, 0, 0, 0, 4, 0, 0, 0, 0, 0, 0, 0, 3, 0, 3, 0, 4, 0, 0],[10, 10, 0, 0, 0, 5, 0, 0, 0, 0, 0, 0, 10, 0, 0, 0, 0, 0, 0, 0, 0, 0, 10, 0, 0, 0, 0, 10, 5, 0, 0, 0, 5, 0, 0, 0, 0, 5, 0, 10, 0, 5, 0, 0, 0, 0, 5, 0, 0, 5],[],[],[],[0, 0, 0, 0, 0, 0, 9, 9, 0, 0, 0, 0, 0, 9, 0, 9, 0, 1, 0, 0, 0, 0, 0, 0, 0, 0, 0, 0, 0, 1, 0, 0, 0, 0, 1, 0, 1, 0, 0, 0, 0, 0, 1, 0, 0, 0, 0, 0, 0, 0],[0, 0, 0, 0, 0, 0, 0, 0, 6, 0, 0, 0, 0, 0, 0, 0, 6, 0, 7, 0, 0, 0, 0, 0, 7, 0, 0, 0, 0, 0, 0, 7, 0, 6, 0, 0, 0, 0, 6, 0, 7, 0, 0, 0, 0, 0, 0, 0, 6, 0],[][42, 36, 29, 17, 34],[2, 20, 21, 44],[4, 43, 10, 30, 23, 45],[26, 25, 47, 35],[41, 46, 37, 32, 5, 28, 49],[16, 33, 8, 48, 38],[18, 24, 40, 31],[14, 19, 3, 11, 9],[7, 13, 15, 6],[0, 22, 1, 27, 12, 39]
00010000010000100000010000000001000000100000000000,00000000000000000000000000000000000000000000000000,00000000000000000000000000000000000000000000000000,01000100000010000000001000011000100001000100001001,00100000000100000000000101100000000100000000000100,00000000000000000000000000000000000000000000000000,10001000000001010000000010000010000000010001110010,00000011001000000100000000000100001010000010000000,00000000100000001011100000000000010000001000000000,00000000000000000000000000000000000000000000000000,[0, 0, 0, 9, 0, 0, 0, 0, 0, 9, 0, 0, 0, 0, 9, 0, 0, 0, 0, 0, 0, 9, 0, 0, 0, 0, 0, 0, 0, 0, 0, 8, 0, 0, 0, 0, 0, 0, 9, 0, 0, 0, 0, 0, 0, 0, 0, 0, 0, 0],[],[],[0, 7, 0, 0, 0, 5, 0, 0, 0, 0, 0, 0, 7, 0, 0, 0, 0, 0, 0, 0, 0, 0, 7, 0, 0, 0, 0, 5, 5, 0, 0, 0, 7, 0, 0, 0, 0, 7, 0, 0, 0, 5, 0, 0, 0, 0, 5, 0, 0, 5],[0, 0, 6, 0, 0, 0, 0, 0, 0, 0, 0, 6, 0, 0, 0, 0, 0, 0, 0, 0, 0, 0, 0, 6, 0, 6, 6, 0, 0, 0, 0, 0, 0, 0, 0, 6, 0, 0, 0, 0, 0, 0, 0, 0, 0, 0, 0, 6, 0, 0],[],[2, 0, 0, 0, 1, 0, 0, 0, 0, 0, 0, 0, 0, 1, 0, 2, 0, 0, 0, 0, 0, 0, 0, 0, 1, 0, 0, 0, 0, 0, 1, 0, 0, 0, 0, 0, 0, 0, 0, 2, 0, 0, 0, 2, 1, 1, 0, 0, 2, 0],[0, 0, 0, 0, 0, 0, 4, 10, 0, 0, 4, 0, 0, 0, 0, 0, 0, 10, 0, 0, 0, 0, 0, 0, 0, 0, 0, 0, 0, 10, 0, 0, 0, 0, 10, 0, 10, 0, 0, 0, 0, 0, 4, 0, 0, 0, 0, 0, 0, 0],[0, 0, 0, 0, 0, 0, 0, 0, 3, 0, 0, 0, 0, 0, 0, 0, 3, 0, 3, 3, 3, 0, 0, 0, 0, 0, 0, 0, 0, 0, 0, 0, 0, 3, 0, 0, 0, 0, 0, 0, 3, 0, 0, 0, 0, 0, 0, 0, 0, 0],[][4, 30, 45, 24, 13, 44],[0, 39, 48, 43, 15],[20, 33, 16, 18, 8, 40, 19],[42, 6, 10],[46, 28, 49, 5, 27, 41],[23, 25, 2, 35, 47, 26, 11],[22, 32, 1, 37, 12],[31],[14, 21, 3, 9, 38],[17, 36, 7, 29, 34]
00000000000000000000000000000000000000000000000000,00010000010000100000110000000000000000000000000000,00000000000000000000000000000000000000000000000000,01000100000010000000001000011000100001000100001001,00000000000000000000000000000000000000000000000000,00100000000100000001000000000000000100000000100100,10001000000001010000000111100010000000010001010010,00000011001000000100000000000100001010000010000000,00000000100000001010000000000001010000101000000000,00000000000000000000000000000000000000000000000000,[],[0, 0, 0, 2, 0, 0, 0, 0, 0, 2, 0, 0, 0, 0, 2, 0, 0, 0, 0, 0, 2, 2, 0, 0, 0, 0, 0, 0, 0, 0, 0, 0, 0, 0, 0, 0, 0, 0, 0, 0, 0, 0, 0, 0, 0, 0, 0, 0, 0, 0],[],[0, 3, 0, 0, 0, 3, 0, 0, 0, 0, 0, 0, 4, 0, 0, 0, 0, 0, 0, 0, 0, 0, 4, 0, 0, 0, 0, 3, 4, 0, 0, 0, 4, 0, 0, 0, 0, 3, 0, 0, 0, 4, 0, 0, 0, 0, 4, 0, 0, 3],[],[0, 0, 1, 0, 0, 0, 0, 0, 0, 0, 0, 1, 0, 0, 0, 0, 0, 0, 0, 1, 0, 0, 0, 0, 0, 0, 0, 0, 0, 0, 0, 0, 0, 0, 0, 1, 0, 0, 0, 0, 0, 0, 0, 0, 1, 0, 0, 1, 0, 0],[5, 0, 0, 0, 5, 0, 0, 0, 0, 0, 0, 0, 0, 10, 0, 5, 0, 0, 0, 0, 0, 0, 0, 5, 10, 5, 10, 0, 0, 0, 10, 0, 0, 0, 0, 0, 0, 0, 0, 10, 0, 0, 0, 10, 0, 5, 0, 0, 10, 0],[0, 0, 0, 0, 0, 0, 6, 7, 0, 0, 6, 0, 0, 0, 0, 0, 0, 6, 0, 0, 0, 0, 0, 0, 0, 0, 0, 0, 0, 7, 0, 0, 0, 0, 6, 0, 7, 0, 0, 0, 0, 0, 7, 0, 0, 0, 0, 0, 0, 0],[0, 0, 0, 0, 0, 0, 0, 0, 8, 0, 0, 0, 0, 0, 0, 0, 9, 0, 8, 0, 0, 0, 0, 0, 0, 0, 0, 0, 0, 0, 0, 9, 0, 9, 0, 0, 0, 0, 9, 0, 9, 0, 0, 0, 0, 0, 0, 0, 0, 0],[][2, 47, 35, 11, 44, 19],[14, 3, 21, 9, 20],[49, 27, 5, 1, 37],[41, 28, 46, 12, 32, 22],[4, 25, 45, 15, 0, 23],[10, 34, 17, 6],[36, 7, 29, 42],[8, 18],[16, 33, 40, 38, 31],[13, 24, 43, 30, 39, 48, 26]
00010000110000101011110000000001010000101000000000,00000000000000000000000000000000000000000000000000,00001011001000010000000010000100001000000001010000,11000100000011000100001000011000100011010110001001,00100000000100000000000101100010000100000000100110,00000000000000000000000000000000000000000000000000,00000000000000000000000000000000000000000000000000,00000000000000000000000000000000000000000000000000,00000000000000000000000000000000000000000000000000,00000000000000000000000000000000000000000000000000,[0, 0, 0, 5, 0, 0, 0, 0, 5, 3, 0, 0, 0, 0, 5, 0, 3, 0, 3, 3, 5, 3, 0, 0, 0, 0, 0, 0, 0, 0, 0, 5, 0, 3, 0, 0, 0, 0, 3, 0, 5, 0, 0, 0, 0, 0, 0, 0, 0, 0],[],[0, 0, 0, 0, 2, 0, 7, 4, 0, 0, 2, 0, 0, 0, 0, 2, 0, 0, 0, 0, 0, 0, 0, 0, 7, 0, 0, 0, 0, 4, 0, 0, 0, 0, 4, 0, 0, 0, 0, 0, 0, 0, 0, 7, 0, 2, 0, 0, 0, 0],[9, 9, 0, 0, 0, 10, 0, 0, 0, 0, 0, 0, 9, 10, 0, 0, 0, 1, 0, 0, 0, 0, 1, 0, 0, 0, 0, 1, 1, 0, 0, 0, 9, 0, 0, 0, 10, 9, 0, 10, 0, 1, 10, 0, 0, 0, 1, 0, 0, 10],[0, 0, 6, 0, 0, 0, 0, 0, 0, 0, 0, 8, 0, 0, 0, 0, 0, 0, 0, 0, 0, 0, 0, 6, 0, 6, 6, 0, 0, 0, 8, 0, 0, 0, 0, 6, 0, 0, 0, 0, 0, 0, 0, 0, 8, 0, 0, 6, 8, 0],[],[],[],[],[][41, 22, 27, 46, 17, 28],[4, 45, 15, 10],[19, 33, 18, 16, 21, 9, 38],[29, 7, 34],[40, 3, 8, 14, 20, 31],[23, 26, 47, 2, 25, 35],[6, 43, 24],[48, 44, 11, 30],[0, 37, 32, 12, 1],[49, 42, 5, 13, 36, 39]
00000000000000000000000000000000000000000000000000,00000000000000000000000000000000000000000000000000,00001000001000000000000101100010000100000001010100,11000100000010000000001000011000100001010100001001,00000000000000000000000000000000000000000000000000,00000000000000000000000000000000000000000000000000,00000000000000000000000000000000000000000000000000,00000011000001010100000000000100001010000010000000,00100000100100001011100010000001010000001000100010,00010000010000100000010000000000000000100000000000,[],[],[0, 0, 0, 0, 9, 0, 0, 0, 0, 0, 4, 0, 0, 0, 0, 0, 0, 0, 0, 0, 0, 0, 0, 4, 0, 9, 4, 0, 0, 0, 9, 0, 0, 0, 0, 9, 0, 0, 0, 0, 0, 0, 0, 9, 0, 9, 0, 4, 0, 0],[1, 10, 0, 0, 0, 10, 0, 0, 0, 0, 0, 0, 10, 0, 0, 0, 0, 0, 0, 0, 0, 0, 10, 0, 0, 0, 0, 10, 10, 0, 0, 0, 10, 0, 0, 0, 0, 1, 0, 1, 0, 1, 0, 0, 0, 0, 10, 0, 0, 1],[],[],[],[0, 0, 0, 0, 0, 0, 5, 6, 0, 0, 0, 0, 0, 6, 0, 5, 0, 6, 0, 0, 0, 0, 0, 0, 0, 0, 0, 0, 0, 5, 0, 0, 0, 0, 5, 0, 5, 0, 0, 0, 0, 0, 6, 0, 0, 0, 0, 0, 0, 0],[0, 0, 3, 0, 0, 0, 0, 0, 3, 0, 0, 3, 0, 0, 0, 0, 2, 0, 2, 3, 3, 0, 0, 0, 2, 0, 0, 0, 0, 0, 0, 2, 0, 2, 0, 0, 0, 0, 0, 0, 3, 0, 0, 0, 3, 0, 0, 0, 3, 0],[0, 0, 0, 8, 0, 0, 0, 0, 0, 7, 0, 0, 0, 0, 7, 0, 0, 0, 0, 0, 0, 8, 0, 0, 0, 0, 0, 0, 0, 0, 0, 0, 0, 0, 0, 0, 0, 0, 7, 0, 0, 0, 0, 0, 0, 0, 0, 0, 0, 0][41, 39, 0, 49, 37],[31, 24, 16, 18, 33],[44, 2, 8, 48, 40, 20, 19, 11],[10, 26, 23, 47],[15, 29, 6, 36, 34],[17, 13, 42, 7],[14, 9, 38],[3, 21],[4, 35, 25, 45, 30, 43],[28, 46, 22, 32, 27, 12, 5, 1]
00010000100000001010010000000001010000101000000000,00000000000000000000000000000000000000000000000000,00101000001000000000000101100010000100000001010100,11000100000010000000001000011000100001010100001001,00000000000000000000000000000000000000000000000000,00000000000000000000000000000000000000000000000000,00000000000000000000000000000000000000000000000000,00000011000001010100000010000100001010000010000000,00000000000000000000000000000000000000000000000000,00000000010100100001100000000000000000000000100010,[0, 0, 0, 4, 0, 0, 0, 0, 1, 0, 0, 0, 0, 0, 0, 0, 1, 0, 1, 0, 0, 1, 0, 0, 0, 0, 0, 0, 0, 0, 0, 1, 0, 4, 0, 0, 0, 0, 1, 0, 4, 0, 0, 0, 0, 0, 0, 0, 0, 0],[],[0, 0, 6, 0, 9, 0, 0, 0, 0, 0, 9, 0, 0, 0, 0, 0, 0, 0, 0, 0, 0, 0, 0, 9, 0, 9, 9, 0, 0, 0, 6, 0, 0, 0, 0, 6, 0, 0, 0, 0, 0, 0, 0, 9, 0, 6, 0, 6, 0, 0],[3, 10, 0, 0, 0, 10, 0, 0, 0, 0, 0, 0, 3, 0, 0, 0, 0, 0, 0, 0, 0, 0, 10, 0, 0, 0, 0, 10, 10, 0, 0, 0, 3, 0, 0, 0, 0, 3, 0, 3, 0, 10, 0, 0, 0, 0, 3, 0, 0, 3],[],[],[],[0, 0, 0, 0, 0, 0, 2, 5, 0, 0, 0, 0, 0, 5, 0, 5, 0, 2, 0, 0, 0, 0, 0, 0, 5, 0, 0, 0, 0, 2, 0, 0, 0, 0, 5, 0, 5, 0, 0, 0, 0, 0, 2, 0, 0, 0, 0, 0, 0, 0],[],[0, 0, 0, 0, 0, 0, 0, 0, 0, 7, 0, 7, 0, 0, 8, 0, 0, 0, 0, 7, 7, 0, 0, 0, 0, 0, 0, 0, 0, 0, 0, 0, 0, 0, 0, 0, 0, 0, 0, 0, 0, 0, 0, 0, 7, 0, 0, 0, 8, 0][31, 18, 16, 8, 21, 38],[6, 17, 42, 29],[46, 32, 12, 37, 39, 49, 0],[3, 33, 40],[34, 36, 24, 15, 13, 7],[35, 45, 2, 47, 30],[9, 11, 19, 44, 20],[48, 14],[10, 23, 4, 25, 43, 26],[28, 27, 41, 1, 22, 5]
00010000110000101010110000000001010000100000000001,00000000000000000000000000000000000000000000000000,00000000000000000000000000000000000000000000000000,00000000000000000000000000000000000000000000000000,00000000000000000000000000000000000000000000000000,00000000000000000000000000000000000000000000000000,10101000000101010001000111100010100100011001111110,01000111001010000100001000011100001011000110000000,00000000000000000000000000000000000000000000000000,00000000000000000000000000000000000000000000000000,[0, 0, 0, 3, 0, 0, 0, 0, 3, 3, 0, 0, 0, 0, 8, 0, 7, 0, 3, 0, 8, 8, 0, 0, 0, 0, 0, 0, 0, 0, 0, 7, 0, 3, 0, 0, 0, 0, 7, 0, 0, 0, 0, 0, 0, 0, 0, 0, 0, 7],[],[],[],[],[],[10, 0, 10, 0, 4, 0, 0, 0, 0, 0, 0, 4, 0, 2, 0, 10, 0, 0, 0, 10, 0, 0, 0, 4, 4, 4, 4, 0, 0, 0, 6, 0, 10, 0, 0, 10, 0, 0, 0, 6, 2, 0, 0, 2, 10, 6, 2, 6, 6, 0],[0, 9, 0, 0, 0, 5, 9, 9, 0, 0, 5, 0, 1, 0, 0, 0, 0, 5, 0, 0, 0, 0, 9, 0, 0, 0, 0, 1, 5, 1, 0, 0, 0, 0, 9, 0, 5, 1, 0, 0, 0, 1, 1, 0, 0, 0, 0, 0, 0, 0],[],[][29, 27, 41, 42, 37, 12],[46, 43, 13, 40],[3, 18, 8, 33, 9],[11, 26, 23, 4, 25, 24],[36, 17, 28, 10, 5],[48, 45, 39, 30, 47],[31, 38, 16, 49],[14, 20, 21],[34, 22, 6, 1, 7],[15, 0, 32, 35, 2, 44, 19]
00000000000000000000000000000000000000000000000000,00010000010100100001110000000000000000000000000000,00000000000000000000000000000000000000000000000000,01000100000010000000001000011000100001000100001001,00100000000000000000000101100000000100000000000100,00000000000000000000000000000000000000000000000000,10001000000001010000000010000010000000010001110010,00000011001000000100000000000100001010000010000000,00000000100000001010000000000001010000101000000000,00000000000000000000000000000000000000000000000000,[],[0, 0, 0, 1, 0, 0, 0, 0, 0, 1, 0, 1, 0, 0, 1, 0, 0, 0, 0, 1, 1, 1, 0, 0, 0, 0, 0, 0, 0, 0, 0, 0, 0, 0, 0, 0, 0, 0, 0, 0, 0, 0, 0, 0, 0, 0, 0, 0, 0, 0],[],[0, 5, 0, 0, 0, 7, 0, 0, 0, 0, 0, 0, 5, 0, 0, 0, 0, 0, 0, 0, 0, 0, 5, 0, 0, 0, 0, 5, 5, 0, 0, 0, 5, 0, 0, 0, 0, 7, 0, 0, 0, 5, 0, 0, 0, 0, 5, 0, 0, 7],[0, 0, 9, 0, 0, 0, 0, 0, 0, 0, 0, 0, 0, 0, 0, 0, 0, 0, 0, 0, 0, 0, 0, 9, 0, 9, 9, 0, 0, 0, 0, 0, 0, 0, 0, 9, 0, 0, 0, 0, 0, 0, 0, 0, 0, 0, 0, 9, 0, 0],[],[6, 0, 0, 0, 6, 0, 0, 0, 0, 0, 0, 0, 0, 3, 0, 3, 0, 0, 0, 0, 0, 0, 0, 0, 3, 0, 0, 0, 0, 0, 6, 0, 0, 0, 0, 0, 0, 0, 0, 3, 0, 0, 0, 3, 6, 3, 0, 0, 6, 0],[0, 0, 0, 0, 0, 0, 10, 10, 0, 0, 10, 0, 0, 0, 0, 0, 0, 4, 0, 0, 0, 0, 0, 0, 0, 0, 0, 0, 0, 10, 0, 0, 0, 0, 4, 0, 10, 0, 0, 0, 0, 0, 4, 0, 0, 0, 0, 0, 0, 0],[0, 0, 0, 0, 0, 0, 0, 0, 2, 0, 0, 0, 0, 0, 0, 0, 8, 0, 2, 0, 0, 0, 0, 0, 0, 0, 0, 0, 0, 0, 0, 8, 0, 8, 0, 0, 0, 0, 2, 0, 8, 0, 0, 0, 0, 0, 0, 0, 0, 0],[][20, 11, 19, 14, 9, 21, 3],[18, 8, 38],[24, 45, 43, 15, 13, 39],[17, 42, 34],[46, 41, 22, 32, 27, 28, 12, 1],[44, 48, 0, 4, 30],[5, 37, 49],[33, 40, 16, 31],[25, 23, 35, 2, 47, 26],[7, 10, 29, 36, 6]
00000000000000000000000000000000000000000000000000,00000000000000000000000000000000000000000000000000,00101000001000000000000101100010000100000001010100,11000100000010001010001000011000110001010100001001,00000000000000000000000000000000000000000000000000,00000000000000000000000000000000000000000000000000,00000000000000000000000000000000000000000000000000,00000011000001010100000010000100001010000010000000,00000000000000000000000000000000000000000000000000,00010000110100100001110000000001000000101000100010,[],[],[0, 0, 10, 0, 10, 0, 0, 0, 0, 0, 10, 0, 0, 0, 0, 0, 0, 0, 0, 0, 0, 0, 0, 6, 0, 6, 6, 0, 0, 0, 10, 0, 0, 0, 0, 6, 0, 0, 0, 0, 0, 0, 0, 10, 0, 6, 0, 6, 0, 0],[9, 4, 0, 0, 0, 3, 0, 0, 0, 0, 0, 0, 9, 0, 0, 0, 3, 0, 3, 0, 0, 0, 9, 0, 0, 0, 0, 3, 3, 0, 0, 0, 4, 9, 0, 0, 0, 4, 0, 9, 0, 4, 0, 0, 0, 0, 4, 0, 0, 3],[],[],[],[0, 0, 0, 0, 0, 0, 2, 2, 0, 0, 0, 0, 0, 7, 0, 7, 0, 8, 0, 0, 0, 0, 0, 0, 7, 0, 0, 0, 0, 7, 0, 0, 0, 0, 2, 0, 2, 0, 0, 0, 0, 0, 8, 0, 0, 0, 0, 0, 0, 0],[],[0, 0, 0, 1, 0, 0, 0, 0, 1, 5, 0, 1, 0, 0, 5, 0, 0, 0, 0, 5, 5, 1, 0, 0, 0, 0, 0, 0, 0, 0, 0, 1, 0, 0, 0, 0, 0, 0, 5, 0, 5, 0, 0, 0, 1, 0, 0, 0, 5, 0][11, 44, 31, 8, 21, 3],[6, 36, 7, 34],[49, 28, 16, 27, 18, 5],[37, 1, 46, 32, 41],[14, 20, 38, 9, 19, 48, 40],[45, 47, 25, 35, 26, 23],[29, 15, 13, 24],[17, 42],[0, 39, 22, 33, 12],[4, 43, 10, 30, 2]
00000000000000000000000000000000000000000000000000,00000000000000000000000000000000000000000000000000,00101000001000000000000101100010000100000001010100,11000100000010001010001000011000110001010100001001,00000000000000000000000000000000000000000000000000,00000000000000000000000000000000000000000000000000,00000000000000000000000000000000000000000000000000,00000011000001010100000010000100001010000010000000,00000000000000000000000000000000000000000000000000,00010000110100100001110000000001000000101000100010,[],[],[0, 0, 4, 0, 4, 0, 0, 0, 0, 0, 4, 0, 0, 0, 0, 0, 0, 0, 0, 0, 0, 0, 0, 7, 0, 6, 7, 0, 0, 0, 4, 0, 0, 0, 0, 7, 0, 0, 0, 0, 0, 0, 0, 6, 0, 6, 0, 6, 0, 0],[8, 8, 0, 0, 0, 3, 0, 0, 0, 0, 0, 0, 5, 0, 0, 0, 3, 0, 3, 0, 0, 0, 5, 0, 0, 0, 0, 5, 5, 0, 0, 0, 3, 3, 0, 0, 0, 5, 0, 8, 0, 5, 0, 0, 0, 0, 5, 0, 0, 3],[],[],[],[0, 0, 0, 0, 0, 0, 2, 10, 0, 0, 0, 0, 0, 2, 0, 10, 0, 10, 0, 0, 0, 0, 0, 0, 10, 0, 0, 0, 0, 10, 0, 0, 0, 0, 2, 0, 10, 0, 0, 0, 0, 0, 10, 0, 0, 0, 0, 0, 0, 0],[],[0, 0, 0, 9, 0, 0, 0, 0, 9, 9, 0, 9, 0, 0, 1, 0, 0, 0, 0, 1, 9, 9, 0, 0, 0, 0, 0, 0, 0, 0, 0, 9, 0, 0, 0, 0, 0, 0, 1, 0, 1, 0, 0, 0, 1, 0, 0, 0, 9, 0][14, 19, 44, 40, 38],[6, 13, 34],[18, 49, 33, 32, 5, 16],[10, 4, 30, 2],[22, 46, 41, 27, 37, 28, 12],[43, 47, 25, 45],[23, 26, 35],[1, 0, 39],[3, 20, 9, 31, 8, 21, 48, 11],[7, 36, 15, 29, 42, 17, 24]
00010000100000001010010000000001010000100000000000,00000000000000000000000000000000000000000000000000,00000000000000000000000000000000000000000000000000,01000100000010000000001000011000100001000100001001,00100000000100000000000101100000000100000000000100,00000000000000000000000000000000000000000000000000,10001000000001010000000010000010000000011001110010,00000011001000000100000000000100001010000010000000,00000000000000000000000000000000000000000000000000,00000000010000100001100000000000000000000000000000,[0, 0, 0, 7, 0, 0, 0, 0, 4, 0, 0, 0, 0, 0, 0, 0, 7, 0, 4, 0, 0, 7, 0, 0, 0, 0, 0, 0, 0, 0, 0, 4, 0, 7, 0, 0, 0, 0, 4, 0, 0, 0, 0, 0, 0, 0, 0, 0, 0, 0],[],[],[0, 10, 0, 0, 0, 10, 0, 0, 0, 0, 0, 0, 10, 0, 0, 0, 0, 0, 0, 0, 0, 0, 10, 0, 0, 0, 0, 2, 2, 0, 0, 0, 10, 0, 0, 0, 0, 2, 0, 0, 0, 10, 0, 0, 0, 0, 2, 0, 0, 2],[0, 0, 6, 0, 0, 0, 0, 0, 0, 0, 0, 6, 0, 0, 0, 0, 0, 0, 0, 0, 0, 0, 0, 6, 0, 6, 6, 0, 0, 0, 0, 0, 0, 0, 0, 6, 0, 0, 0, 0, 0, 0, 0, 0, 0, 0, 0, 6, 0, 0],[],[3, 0, 0, 0, 3, 0, 0, 0, 0, 0, 0, 0, 0, 3, 0, 3, 0, 0, 0, 0, 0, 0, 0, 0, 9, 0, 0, 0, 0, 0, 9, 0, 0, 0, 0, 0, 0, 0, 0, 9, 3, 0, 0, 9, 3, 9, 0, 0, 9, 0],[0, 0, 0, 0, 0, 0, 1, 5, 0, 0, 5, 0, 0, 0, 0, 0, 0, 5, 0, 0, 0, 0, 0, 0, 0, 0, 0, 0, 0, 5, 0, 0, 0, 0, 1, 0, 1, 0, 0, 0, 0, 0, 5, 0, 0, 0, 0, 0, 0, 0],[],[0, 0, 0, 0, 0, 0, 0, 0, 0, 8, 0, 0, 0, 0, 8, 0, 0, 0, 0, 8, 8, 0, 0, 0, 0, 0, 0, 0, 0, 0, 0, 0, 0, 0, 0, 0, 0, 0, 0, 0, 0, 0, 0, 0, 0, 0, 0, 0, 0, 0][36, 6, 34],[46, 27, 49, 28, 37],[44, 15, 13, 40, 0, 4],[8, 18, 31, 38],[10, 42, 7, 17, 29],[26, 47, 11, 25, 2, 23, 35],[33, 16, 21, 3],[9, 20, 19, 14],[43, 48, 30, 45, 39, 24],[41, 12, 32, 22, 5, 1]
00000000000000000000000000000000000000000000000000,00000000000000000000000000000000000000000000000000,00001000001000000000000000000000000000000000000000,01000100000010000000001000011000100001000100001001,00100000000100000000000101100000000100000000000100,00000000000000000000000000000000000000000000000000,10000000000001010000000010000010000000010001110010,00000011000000000100000000000100001010000010000000,00010000110000101011110000000001010000101000000000,00000000000000000000000000000000000000000000000000,[],[],[0, 0, 0, 0, 7, 0, 0, 0, 0, 0, 7, 0, 0, 0, 0, 0, 0, 0, 0, 0, 0, 0, 0, 0, 0, 0, 0, 0, 0, 0, 0, 0, 0, 0, 0, 0, 0, 0, 0, 0, 0, 0, 0, 0, 0, 0, 0, 0, 0, 0],[0, 2, 0, 0, 0, 1, 0, 0, 0, 0, 0, 0, 2, 0, 0, 0, 0, 0, 0, 0, 0, 0, 1, 0, 0, 0, 0, 1, 1, 0, 0, 0, 2, 0, 0, 0, 0, 2, 0, 0, 0, 2, 0, 0, 0, 0, 1, 0, 0, 1],[0, 0, 3, 0, 0, 0, 0, 0, 0, 0, 0, 3, 0, 0, 0, 0, 0, 0, 0, 0, 0, 0, 0, 3, 0, 3, 3, 0, 0, 0, 0, 0, 0, 0, 0, 3, 0, 0, 0, 0, 0, 0, 0, 0, 0, 0, 0, 3, 0, 0],[],[10, 0, 0, 0, 0, 0, 0, 0, 0, 0, 0, 0, 0, 4, 0, 4, 0, 0, 0, 0, 0, 0, 0, 0, 10, 0, 0, 0, 0, 0, 10, 0, 0, 0, 0, 0, 0, 0, 0, 10, 0, 0, 0, 10, 4, 10, 0, 0, 4, 0],[0, 0, 0, 0, 0, 0, 8, 6, 0, 0, 0, 0, 0, 0, 0, 0, 0, 6, 0, 0, 0, 0, 0, 0, 0, 0, 0, 0, 0, 8, 0, 0, 0, 0, 6, 0, 6, 0, 0, 0, 0, 0, 8, 0, 0, 0, 0, 0, 0, 0],[0, 0, 0, 9, 0, 0, 0, 0, 5, 5, 0, 0, 0, 0, 9, 0, 9, 0, 5, 9, 5, 5, 0, 0, 0, 0, 0, 0, 0, 0, 0, 9, 0, 9, 0, 0, 0, 0, 9, 0, 5, 0, 0, 0, 0, 0, 0, 0, 0, 0],[][5, 22, 49, 28, 27, 46],[37, 1, 41, 32, 12],[26, 23, 11, 35, 47, 25, 2],[15, 13, 44, 48],[20, 18, 9, 21, 40, 8],[36, 17, 7, 34],[10, 4],[42, 29, 6],[14, 38, 19, 33, 16, 31, 3],[30, 43, 45, 0, 39, 24]
00000000000000000000000000000000000000000000000000,00110000010100100001110000000001000000101000100010,00001000001000000000000101100010000100000001010100,11000100100010001010001000011000110001010100001001,00000000000000000000000000000000000000000000000000,00000000000000000000000000000000000000000000000000,00000000000000000000000000000000000000000000000000,00000011000001010100000010000100001010000010000000,00000000000000000000000000000000000000000000000000,00000000000000000000000000000000000000000000000000,[],[0, 0, 3, 3, 0, 0, 0, 0, 0, 6, 0, 6, 0, 0, 3, 0, 0, 0, 0, 6, 6, 3, 0, 0, 0, 0, 0, 0, 0, 0, 0, 3, 0, 0, 0, 0, 0, 0, 6, 0, 3, 0, 0, 0, 3, 0, 0, 0, 6, 0],[0, 0, 0, 0, 2, 0, 0, 0, 0, 0, 1, 0, 0, 0, 0, 0, 0, 0, 0, 0, 0, 0, 0, 2, 0, 1, 2, 0, 0, 0, 2, 0, 0, 0, 0, 1, 0, 0, 0, 0, 0, 0, 0, 2, 0, 1, 0, 1, 0, 0],[4, 4, 0, 0, 0, 5, 0, 0, 5, 0, 0, 0, 5, 0, 0, 0, 5, 0, 10, 0, 0, 0, 4, 0, 0, 0, 0, 10, 10, 0, 0, 0, 10, 4, 0, 0, 0, 5, 0, 4, 0, 10, 0, 0, 0, 0, 10, 0, 0, 5],[],[],[],[0, 0, 0, 0, 0, 0, 8, 7, 0, 0, 0, 0, 0, 9, 0, 7, 0, 7, 0, 0, 0, 0, 0, 0, 9, 0, 0, 0, 0, 9, 0, 0, 0, 0, 9, 0, 9, 0, 0, 0, 0, 0, 8, 0, 0, 0, 0, 0, 0, 0],[],[][10, 45, 35, 47, 25],[4, 43, 23, 30, 26],[44, 2, 14, 31, 3, 21, 40],[1, 22, 0, 33, 39],[16, 12, 49, 8, 37, 5],[20, 11, 9, 19, 48, 38],[17, 15, 7],[6, 42],[34, 36, 13, 24, 29],[41, 46, 32, 18, 28, 27]
00010000010000100000010000000001000000100000000000,00000000000000000000000000000000000000000000000000,00001000001000000000000101100010000100000001010100,11000100000010000000001000011000100001010100001001,00000000000000000000000000000000000000000000000000,00000000000000000000000000000000000000000000000000,00000000000000000000000000000000000000000000000000,00000011000001010100000000000100001010000010000000,00100000100100001011100010000000010000001000100010,00000000000000000000000000000000000000000000000000,[0, 0, 0, 2, 0, 0, 0, 0, 0, 2, 0, 0, 0, 0, 2, 0, 0, 0, 0, 0, 0, 8, 0, 0, 0, 0, 0, 0, 0, 0, 0, 8, 0, 0, 0, 0, 0, 0, 2, 0, 0, 0, 0, 0, 0, 0, 0, 0, 0, 0],[],[0, 0, 0, 0, 5, 0, 0, 0, 0, 0, 7, 0, 0, 0, 0, 0, 0, 0, 0, 0, 0, 0, 0, 7, 0, 5, 7, 0, 0, 0, 5, 0, 0, 0, 0, 7, 0, 0, 0, 0, 0, 0, 0, 5, 0, 5, 0, 5, 0, 0],[3, 3, 0, 0, 0, 6, 0, 0, 0, 0, 0, 0, 3, 0, 0, 0, 0, 0, 0, 0, 0, 0, 6, 0, 0, 0, 0, 6, 6, 0, 0, 0, 6, 0, 0, 0, 0, 3, 0, 6, 0, 3, 0, 0, 0, 0, 6, 0, 0, 6],[],[],[],[0, 0, 0, 0, 0, 0, 1, 1, 0, 0, 0, 0, 0, 9, 0, 9, 0, 1, 0, 0, 0, 0, 0, 0, 0, 0, 0, 0, 0, 9, 0, 0, 0, 0, 1, 0, 9, 0, 0, 0, 0, 0, 9, 0, 0, 0, 0, 0, 0, 0],[0, 0, 4, 0, 0, 0, 0, 0, 10, 0, 0, 4, 0, 0, 0, 0, 10, 0, 10, 10, 10, 0, 0, 0, 4, 0, 0, 0, 0, 0, 0, 0, 0, 10, 0, 0, 0, 0, 0, 0, 10, 0, 0, 0, 4, 0, 0, 0, 4, 0],[][34, 7, 6, 17],[9, 38, 14, 3],[12, 37, 41, 0, 1],[24, 2, 11, 44, 48],[4, 45, 30, 25, 47, 43],[27, 28, 49, 46, 5, 32, 39, 22],[10, 23, 26, 35],[21, 31],[36, 15, 42, 29, 13],[20, 19, 40, 16, 8, 18, 33]
00000000000000000000000000000000000000000000000000,00000000000000000000000000000000000000000000000000,00000000000000000000000000000000000000000000000000,01000100000010000000001000011000100001000100001001,00100000000100000000000101100000000100000000000100,00000000000000000000000000000000000000000000000000,10001000000001010000000010000010000000010001110010,00000011001000000100000000000100001010000010000000,00010000110000101011110000000001010000101000000000,00000000000000000000000000000000000000000000000000,[],[],[],[0, 3, 0, 0, 0, 3, 0, 0, 0, 0, 0, 0, 2, 0, 0, 0, 0, 0, 0, 0, 0, 0, 2, 0, 0, 0, 0, 3, 3, 0, 0, 0, 2, 0, 0, 0, 0, 3, 0, 0, 0, 2, 0, 0, 0, 0, 3, 0, 0, 3],[0, 0, 8, 0, 0, 0, 0, 0, 0, 0, 0, 4, 0, 0, 0, 0, 0, 0, 0, 0, 0, 0, 0, 4, 0, 4, 4, 0, 0, 0, 0, 0, 0, 0, 0, 8, 0, 0, 0, 0, 0, 0, 0, 0, 0, 0, 0, 8, 0, 0],[],[5, 0, 0, 0, 5, 0, 0, 0, 0, 0, 0, 0, 0, 5, 0, 6, 0, 0, 0, 0, 0, 0, 0, 0, 6, 0, 0, 0, 0, 0, 5, 0, 0, 0, 0, 0, 0, 0, 0, 6, 0, 0, 0, 6, 5, 6, 0, 0, 5, 0],[0, 0, 0, 0, 0, 0, 9, 7, 0, 0, 9, 0, 0, 0, 0, 0, 0, 9, 0, 0, 0, 0, 0, 0, 0, 0, 0, 0, 0, 7, 0, 0, 0, 0, 9, 0, 7, 0, 0, 0, 0, 0, 9, 0, 0, 0, 0, 0, 0, 0],[0, 0, 0, 10, 0, 0, 0, 0, 1, 1, 0, 0, 0, 0, 10, 0, 1, 0, 1, 10, 10, 1, 0, 0, 0, 0, 0, 0, 0, 0, 0, 1, 0, 10, 0, 0, 0, 0, 10, 0, 10, 0, 0, 0, 0, 0, 0, 0, 0, 0],[][31, 9, 21, 8, 16, 18],[12, 22, 32, 41],[27, 49, 37, 1, 46, 28, 5],[26, 23, 25, 11],[44, 30, 4, 0, 13, 48],[24, 39, 15, 43, 45],[36, 7, 29],[2, 47, 35],[10, 34, 6, 17, 42],[14, 3, 33, 40, 20, 38, 19]
00000000000000000000000000000000000000000000000000,00110000010100100001110000000001000000101000100010,00001000001000000000000101100010000100000001010100,11000100100010001010001000011000110001010100001001,00000000000000000000000000000000000000000000000000,00000000000000000000000000000000000000000000000000,00000000000000000000000000000000000000000000000000,00000011000001010100000010000100001010000010000000,00000000000000000000000000000000000000000000000000,00000000000000000000000000000000000000000000000000,[],[0, 0, 7, 3, 0, 0, 0, 0, 0, 3, 0, 7, 0, 0, 3, 0, 0, 0, 0, 8, 7, 3, 0, 0, 0, 0, 0, 0, 0, 0, 0, 3, 0, 0, 0, 0, 0, 0, 8, 0, 3, 0, 0, 0, 7, 0, 0, 0, 7, 0],[0, 0, 0, 0, 10, 0, 0, 0, 0, 0, 10, 0, 0, 0, 0, 0, 0, 0, 0, 0, 0, 0, 0, 1, 0, 10, 10, 0, 0, 0, 10, 0, 0, 0, 0, 10, 0, 0, 0, 0, 0, 0, 0, 1, 0, 1, 0, 1, 0, 0],[5, 5, 0, 0, 0, 6, 0, 0, 5, 0, 0, 0, 5, 0, 0, 0, 4, 0, 5, 0, 0, 0, 6, 0, 0, 0, 0, 5, 6, 0, 0, 0, 6, 6, 0, 0, 0, 6, 0, 6, 0, 4, 0, 0, 0, 0, 4, 0, 0, 4],[],[],[],[0, 0, 0, 0, 0, 0, 2, 9, 0, 0, 0, 0, 0, 9, 0, 9, 0, 2, 0, 0, 0, 0, 0, 0, 2, 0, 0, 0, 0, 9, 0, 0, 0, 0, 2, 0, 9, 0, 0, 0, 0, 0, 2, 0, 0, 0, 0, 0, 0, 0],[],[][43, 45, 23, 47],[6, 34, 42, 24, 17],[31, 40, 3, 14, 21, 9],[16, 46, 49, 41],[1, 12, 0, 18, 8, 27],[33, 39, 28, 37, 22, 5, 32],[44, 20, 11, 2, 48],[38, 19],[15, 36, 29, 7, 13],[25, 35, 10, 26, 4, 30]
00010000010000100000010000000001000000100000000000,00000000000000000000000000000000000000000000000000,00001000001000000000000101100010000100000001010100,11000100000010000000001000011000100001010100001001,00000000000000000000000000000000000000000000000000,00000000000000000000000000000000000000000000000000,00000000000000000000000000000000000000000000000000,00000011000001010100000000000100001010000010000000,00100000100100001011100010000000010000001000100010,00000000000000000000000000000000000000000000000000,[0, 0, 0, 6, 0, 0, 0, 0, 0, 6, 0, 0, 0, 0, 6, 0, 0, 0, 0, 0, 0, 8, 0, 0, 0, 0, 0, 0, 0, 0, 0, 8, 0, 0, 0, 0, 0, 0, 6, 0, 0, 0, 0, 0, 0, 0, 0, 0, 0, 0],[],[0, 0, 0, 0, 2, 0, 0, 0, 0, 0, 2, 0, 0, 0, 0, 0, 0, 0, 0, 0, 0, 0, 0, 1, 0, 2, 1, 0, 0, 0, 2, 0, 0, 0, 0, 2, 0, 0, 0, 0, 0, 0, 0, 1, 0, 1, 0, 1, 0, 0],[3, 3, 0, 0, 0, 10, 0, 0, 0, 0, 0, 0, 10, 0, 0, 0, 0, 0, 0, 0, 0, 0, 10, 0, 0, 0, 0, 10, 3, 0, 0, 0, 3, 0, 0, 0, 0, 10, 0, 3, 0, 3, 0, 0, 0, 0, 3, 0, 0, 10],[],[],[],[0, 0, 0, 0, 0, 0, 4, 9, 0, 0, 0, 0, 0, 9, 0, 4, 0, 9, 0, 0, 0, 0, 0, 0, 0, 0, 0, 0, 0, 4, 0, 0, 0, 0, 9, 0, 9, 0, 0, 0, 0, 0, 4, 0, 0, 0, 0, 0, 0, 0],[0, 0, 5, 0, 0, 0, 0, 0, 5, 0, 0, 7, 0, 0, 0, 0, 5, 0, 7, 7, 7, 0, 0, 0, 5, 0, 0, 0, 0, 0, 0, 0, 0, 5, 0, 0, 0, 0, 0, 0, 7, 0, 0, 0, 5, 0, 0, 0, 5, 0],[][45, 43, 23, 47, 26],[30, 4, 35, 25, 10],[39, 0, 46, 28, 32, 41, 1],[29, 42, 15, 6],[2, 44, 33, 16, 48, 24, 8],[38, 14, 3, 9],[40, 11, 20, 19, 18],[21, 31],[34, 17, 7, 36, 13],[49, 12, 22, 37, 5, 27]
